Route 1: 0 84 97 29 37 56 92 2 6 50 0
Route 2: 0 24 89 30 59 76 68 7 71 55 70 4 52 0
Route 3: 0 32 57 48 63 47 3 96 61 34 94 72 0
Route 4: 0 33 9 27 53 36 77 98 65 0
Route 5: 0 35 46 66 40 60 8 0
Route 6: 0 67 64 45 14 17 58 12 41 82 0
Route 7: 0 88 95 26 80 51 28 93 18 90 75 21 5 0
Route 8: 0 74 100 54 20 38 11 86 0
Route 9: 0 78 99 19 13 42 10 73 49 87 25 16 0
Route 10: 0 15 83 91 69 23 1 44 62 81 0
Route 11: 0 79 85 43 22 31 39 0
